1000 1000
365 378 410 425 425 439 464 520 520 540 549 549 553 555 555 555 567 572 572 572 572 572 572 572 572 610 660 690 949 949 970
185 200 165 148 296 116 1006 205 350 530 1413 1882 496 755 496 659 473 592 975 1175 1575 1390 1490 1590 1690 1890 625 490 447 445 478 463
67525 75600 67650 62900 125800 50924 466784 106600 182000 286200 775737 1033218 274288 419025 275280 365745 268191 338624 557700 672100 900900 795080 852280 909480 966680 1081080 381250 323400 308430 422305 453622 449110